c Generated map
c Size: 9 * 9, weights in range: 1 to 10, walls: True, with ratio 0.05
c dim 4 of 7
c
p sp 81 129
c graph contains 81 nodes and 129 arcs
c
a 1 10 5
a 10 1 5
a 1 2 2
a 2 1 2
a 2 11 7
a 11 2 7
a 2 3 6
a 3 2 6
a 3 12 3
a 12 3 3
a 3 4 4
a 4 3 4
a 4 13 8
a 13 4 8
a 4 5 7
a 5 4 7
a 5 14 3
a 14 5 3
a 5 6 5
a 6 5 5
a 6 15 8
a 15 6 8
a 8 17 2
a 17 8 2
a 8 9 9
a 9 8 9
a 9 18 3
a 18 9 3
a 10 19 7
a 19 10 7
a 10 11 10
a 11 10 10
a 11 20 1
a 20 11 1
a 11 12 2
a 12 11 2
a 12 21 1
a 21 12 1
a 12 13 2
a 13 12 2
a 13 22 4
a 22 13 4
a 13 14 9
a 14 13 9
a 14 23 7
a 23 14 7
a 14 15 10
a 15 14 10
a 15 24 9
a 24 15 9
a 15 16 1
a 16 15 1
a 16 25 8
a 25 16 8
a 16 17 2
a 17 16 2
a 17 26 6
a 26 17 6
a 17 18 9
a 18 17 9
a 18 27 2
a 27 18 2
a 19 28 4
a 28 19 4
a 19 20 1
a 20 19 1
a 20 29 5
a 29 20 5
a 20 21 8
a 21 20 8
a 21 30 5
a 30 21 5
a 21 22 4
a 22 21 4
a 22 31 4
a 31 22 4
a 22 23 7
a 23 22 7
a 23 32 8
a 32 23 8
a 23 24 10
a 24 23 10
a 24 33 3
a 33 24 3
a 24 25 1
a 25 24 1
a 25 34 9
a 34 25 9
a 25 26 2
a 26 25 2
a 26 35 5
a 35 26 5
a 26 27 1
a 27 26 1
a 27 36 9
a 36 27 9
a 28 37 4
a 37 28 4
a 28 29 6
a 29 28 6
a 29 38 4
a 38 29 4
a 29 30 2
a 30 29 2
a 30 39 8
a 39 30 8
a 30 31 7
a 31 30 7
a 31 40 4
a 40 31 4
a 31 32 10
a 32 31 10
a 32 41 8
a 41 32 8
a 32 33 9
a 33 32 9
a 33 34 8
a 34 33 8
a 34 43 1
a 43 34 1
a 34 35 4
a 35 34 4
a 35 44 5
a 44 35 5
a 35 36 3
a 36 35 3
a 36 45 1
a 45 36 1
a 37 46 10
a 46 37 10
a 37 38 1
a 38 37 1
a 38 47 3
a 47 38 3
a 38 39 9
a 39 38 9
a 39 40 10
a 40 39 10
a 40 49 2
a 49 40 2
a 40 41 1
a 41 40 1
a 41 50 3
a 50 41 3
a 43 52 1
a 52 43 1
a 43 44 7
a 44 43 7
a 44 53 10
a 53 44 10
a 44 45 9
a 45 44 9
a 45 54 8
a 54 45 8
a 46 55 5
a 55 46 5
a 46 47 8
a 47 46 8
a 47 56 10
a 56 47 10
a 49 58 7
a 58 49 7
a 49 50 6
a 50 49 6
a 50 59 6
a 59 50 6
a 50 51 6
a 51 50 6
a 51 60 1
a 60 51 1
a 51 52 2
a 52 51 2
a 52 61 7
a 61 52 7
a 52 53 7
a 53 52 7
a 53 54 4
a 54 53 4
a 54 63 5
a 63 54 5
a 55 64 6
a 64 55 6
a 55 56 10
a 56 55 10
a 56 65 8
a 65 56 8
a 56 57 7
a 57 56 7
a 57 66 10
a 66 57 10
a 57 58 8
a 58 57 8
a 58 67 3
a 67 58 3
a 58 59 10
a 59 58 10
a 59 68 4
a 68 59 4
a 59 60 10
a 60 59 10
a 60 69 9
a 69 60 9
a 60 61 6
a 61 60 6
a 61 70 7
a 70 61 7
a 63 72 1
a 72 63 1
a 64 73 2
a 73 64 2
a 64 65 7
a 65 64 7
a 65 74 8
a 74 65 8
a 65 66 4
a 66 65 4
a 66 75 8
a 75 66 8
a 66 67 9
a 67 66 9
a 67 76 6
a 76 67 6
a 67 68 2
a 68 67 2
a 68 77 1
a 77 68 1
a 68 69 2
a 69 68 2
a 69 78 9
a 78 69 9
a 69 70 1
a 70 69 1
a 70 79 9
a 79 70 9
a 70 71 7
a 71 70 7
a 71 80 2
a 80 71 2
a 71 72 7
a 72 71 7
a 72 81 6
a 81 72 6
a 73 74 8
a 74 73 8
a 74 75 1
a 75 74 1
a 75 76 10
a 76 75 10
a 76 77 5
a 77 76 5
a 77 78 7
a 78 77 7
a 78 79 8
a 79 78 8
a 79 80 6
a 80 79 6
a 80 81 3
a 81 80 3
